data;

param n:=26;
param p:=4;
param r:=[1] 0 [2] 2 [3] 3 [4] 9 [5] 12 [6] 9 [7] 4 [8] 27 [9] 28 [10] 14 [11] 6 [12] 15 [13] 13 [14] 21 [15] 29 [16] 15 [17] 30 [18] 19 [19] 3 [20] 47 [21] 58 [22] 16 [23] 63 [24] 21 [25] 71 [26] 23 ;
param w:=[1] 48 [2] 17 [3] 62 [4] 64 [5] 70 [6] 18 [7] 65 [8] 60 [9] 85 [10] 39 [11] 89 [12] 23 [13] 83 [14] 10 [15] 17 [16] 92 [17] 75 [18] 72 [19] 79 [20] 14 [21] 86 [22] 19 [23] 39 [24] 14 [25] 17 [26] 12 ;

end;
